NAME: random86
TYPE: TSP
DIMENSION: 86
EDGE_WEIGHT_TYPE: EXPLICIT
EDGE_WEIGHT_FORMAT: FULL_MATRIX
EDGE_WEIGHT_SECTION
0 1270 1270 1270 1270 1270 1270 1270 11 1270 1270 1270 1270 1270 1270 1270 7 1270 1270 1270 1270 1270 1270 1270 1270 1270 1270 1270 1270 1270 11 1270 1270 1270 1270 1270 1270 8 1270 1270 1270 1270 1270 1270 1270 1270 1270 1270 1270 1270 1270 1270 1270 1270 1270 1270 1270 1270 1270 1270 1270 1270 1270 1270 1270 1270 1270 1270 1270 1270 1270 1270 1270 1270 3 1270 1270 1270 1270 1270 1270 1270 1270 1270 1270 1270
1270 0 1270 1270 1270 1270 1270 1270 1270 1270 1270 1270 1270 2 1270 1270 1270 1270 1270 1270 1270 1270 1270 1270 1270 1270 1270 1270 1270 1270 1270 1270 1270 1270 1270 1270 1270 1270 1270 1270 1270 1270 1270 1270 1270 1270 1270 1270 1270 1270 1270 1270 1270 1270 9 1270 1270 1270 1270 1270 1270 1270 1270 1270 23 1270 1270 1270 1270 1270 5 2 1270 3 1270 1270 1270 1270 1270 1270 1270 1270 1270 1270 1270 1270
1270 1270 0 1270 1270 1270 1270 1270 1270 1270 6 1270 1270 10 1270 1270 1270 1270 1270 1270 1270 1270 1270 19 1270 1270 1270 1270 1270 1270 1270 1270 1270 1270 1270 1270 1270 1270 1270 1270 25 1270 1270 1270 1270 1270 1270 1270 1270 1270 1270 1270 1270 1270 13 1270 1270 1270 1270 1270 1270 1270 1270 1270 1270 1270 1270 1270 1270 1270 8 11 1270 1270 1270 1270 1270 1270 1270 1270 1270 1270 1270 1270 10 1270
1270 1270 1270 0 1270 1270 1270 1270 1270 1270 1270 1270 1270 1270 1270 1270 1270 1270 1270 1270 1270 1270 1270 1270 1270 1270 1270 1270 1270 1270 1270 1270 9 1270 1270 1270 1270 1270 1270 1270 1270 1270 8 8 1270 1270 1270 1270 1270 1270 1270 1270 1270 1270 1270 1270 1270 1270 1270 1270 1270 1270 1270 1270 1270 1270 1270 1270 1270 1270 1270 1270 1270 1270 1270 10 1270 1270 1270 1270 12 1270 1270 1270 1270 1270
1270 1270 1270 1270 0 1270 1270 1270 1270 1270 1270 1270 1270 1270 1270 1270 1270 1270 1270 1270 1270 9 18 1270 1270 1270 1270 1270 1270 1270 1270 1270 1270 1270 5 1270 1270 1270 20 1270 1270 1270 1270 1270 1270 1270 18 1270 1270 1270 1270 1270 1270 1270 1270 1270 1270 1270 1270 14 1270 1270 1270 1270 1270 1270 1270 1270 1270 10 1270 1270 1270 1270 1270 1270 1270 1270 1270 1270 1270 1270 1270 1270 1270 1270
1270 1270 1270 1270 1270 0 1270 1270 1270 1270 1270 1270 1270 1270 1270 1270 1270 1270 1270 1270 1270 1270 1270 1270 1270 1270 1270 1270 1270 1270 1270 1270 1270 1270 1270 1270 1270 1270 1270 1270 1270 1270 1270 1270 1270 1270 1270 1270 1270 1270 1270 1270 1270 1270 1270 1270 1270 1270 1270 1270 1270 1270 1270 1270 26 1270 1270 1270 1270 1270 1270 11 1270 10 1270 1270 1270 1270 4 1270 1270 1270 1270 6 1270 1270
1270 1270 1270 1270 1270 1270 0 1270 1270 1270 1270 1270 1270 1270 1270 1270 1270 1270 1270 1270 1270 1270 1270 1270 4 1270 1270 1270 1270 1270 1270 1270 1270 1270 1270 1270 1270 1270 1270 1270 1270 1270 1270 1270 1270 1270 1270 1270 1270 1270 1270 1270 1270 12 1270 1270 1270 1270 1270 1270 1270 1270 1270 1270 1270 1270 1270 1270 1270 1270 1270 1270 8 1270 1270 1270 1270 20 1270 1270 1270 1270 1270 1270 1270 1270
1270 1270 1270 1270 1270 1270 1270 0 1270 1270 1270 1270 1270 1270 22 1270 1270 1270 1270 16 1270 1270 1270 1270 1270 1270 3 1270 1270 1270 1270 1270 1270 1270 1270 1270 1270 1270 1270 1270 1270 1270 1270 1270 1270 1270 1270 1270 1270 1270 1270 1270 1270 1270 1270 1270 1270 1270 1270 1270 1270 1270 1270 1270 1270 1270 1270 1270 3 1270 1270 1270 1270 1270 1270 1270 1270 1270 1270 1270 1270 1270 1270 1270 1270 1270
11 1270 1270 1270 1270 1270 1270 1270 0 1270 1270 1270 1270 1270 32 1270 11 18 1270 1270 1270 1270 1270 1270 1270 1270 1270 1270 14 1270 1270 1270 1270 1270 1270 1270 1270 1270 1270 1270 1270 20 1270 1270 1270 1270 1270 1270 1270 1270 1270 1270 1270 1270 1270 1270 1270 1270 1270 1270 1270 1270 1270 1270 1270 1270 1270 19 1270 1270 1270 1270 1270 1270 10 1270 1270 1270 1270 1270 1270 1270 1270 1270 1270 1270
1270 1270 1270 1270 1270 1270 1270 1270 1270 0 1270 1270 1270 1270 1270 1270 1270 1270 1270 1270 1270 1270 1270 1270 1270 1270 1270 1270 1270 1270 1270 1270 1270 7 1270 1270 1270 1270 1270 1270 1270 1270 1270 1270 1270 1270 1270 1270 1270 1270 1270 1270 1270 1270 1270 1270 12 1270 1270 1270 1270 1270 1270 1270 1270 1270 1270 1270 1270 1270 1270 1270 1270 1270 1270 1270 1270 1270 12 7 1270 1270 1270 13 1270 1270
1270 1270 6 1270 1270 1270 1270 1270 1270 1270 0 1270 1270 1270 1270 6 1270 1270 1270 1270 1270 1270 1270 1270 1270 1270 1270 5 1270 1270 1270 1270 1270 1270 1270 1270 1270 1270 1270 1270 1270 1270 1270 1270 1270 1270 1270 1270 1270 1270 1270 1270 1270 1270 1270 1270 1270 1270 1270 1270 1270 1270 1270 1270 1270 1270 1270 1270 1270 1270 1270 14 1270 1270 1270 1270 1270 1270 1270 1270 1270 1270 1270 13 6 1270
1270 1270 1270 1270 1270 1270 1270 1270 1270 1270 1270 0 1270 1270 1270 1270 1270 1270 1270 1270 1270 1270 4 1270 1270 1270 1270 1270 1270 1270 1270 1270 1270 1270 1270 1270 9 1270 1270 1270 1270 1270 1270 1270 1270 1270 3 1270 1270 1270 1270 1270 1270 1270 1270 1270 1270 1270 4 1270 1270 1270 1270 1270 1270 1270 4 1270 1270 1270 1270 1270 1270 1270 1270 1270 1270 1270 1270 1270 1270 1270 1270 1270 1270 1270
1270 1270 1270 1270 1270 1270 1270 1270 1270 1270 1270 1270 0 1270 1270 20 1270 1270 1270 1270 1270 1270 1270 1270 1270 1270 1270 1270 1270 1270 1270 1270 1270 1270 1270 1270 1270 1270 1270 1270 1270 1270 1270 1270 1270 1270 1270 12 1270 1270 1270 1270 15 1270 1270 1270 1270 19 1270 1270 1270 1270 1270 1270 1270 1270 1270 1270 1270 1270 1270 1270 1270 1270 1270 11 11 1270 1270 1270 8 17 1270 1270 1270 1270
1270 2 10 1270 1270 1270 1270 1270 1270 1270 1270 1270 1270 0 1270 1270 1270 1270 1270 1270 1270 1270 1270 1270 1270 1270 1270 1270 1270 1270 1270 1270 1270 1270 1270 1270 1270 1270 1270 1270 1270 1270 1270 1270 1270 1270 1270 1270 1270 1270 1270 1270 1270 1270 1270 1270 1270 1270 1270 1270 1270 1270 1270 1270 1270 1270 1270 1270 1270 1270 3 3 1270 1270 1270 1270 1270 1270 1270 1270 1270 1270 1270 1270 1270 1270
1270 1270 1270 1270 1270 1270 1270 22 32 1270 1270 1270 1270 1270 0 1270 1270 30 1270 23 1270 1270 1270 1270 1270 1270 1270 1270 1270 1270 1270 1270 1270 1270 1270 1270 1270 1270 1270 1270 1270 47 1270 1270 1270 1270 1270 1270 1270 1270 1270 1270 1270 1270 1270 1270 1270 1270 1270 1270 55 1270 1270 1270 1270 1270 1270 1270 24 1270 1270 1270 1270 1270 1270 1270 1270 1270 1270 1270 1270 1270 16 1270 1270 1270
1270 1270 1270 1270 1270 1270 1270 1270 1270 1270 6 1270 20 1270 1270 0 1270 1270 1270 1270 1270 1270 1270 1270 1270 1270 1270 2 1270 1270 1270 1270 1270 17 1270 1270 1270 1270 1270 1270 1270 1270 1270 1270 1270 1270 1270 1270 1270 1270 1270 1270 1270 1270 1270 1270 20 2 1270 1270 1270 1270 1270 1270 1270 1270 1270 1270 1270 1270 1270 1270 1270 1270 1270 1270 1270 1270 1270 1270 1270 22 1270 15 1270 1270
7 1270 1270 1270 1270 1270 1270 1270 11 1270 1270 1270 1270 1270 1270 1270 0 1270 1270 1270 1270 1270 1270 1270 1270 1270 1270 1270 1270 1270 9 1270 1270 1270 1270 1270 1270 1270 1270 1270 1270 10 1270 1270 1270 1270 1270 1270 1270 1270 1270 10 1270 1270 1270 1270 1270 1270 1270 1270 1270 1270 1270 1270 1270 1270 1270 1270 1270 1270 1270 1270 1270 1270 1270 1270 1270 1270 1270 1270 1270 1270 1270 1270 1270 1270
1270 1270 1270 1270 1270 1270 1270 1270 18 1270 1270 1270 1270 1270 30 1270 1270 0 1270 1270 1270 1270 1270 1270 1270 1270 1270 1270 1270 1270 1270 1270 1270 1270 1270 1270 1270 1270 1270 1270 1270 1270 11 1270 1270 1270 1270 1270 1270 1270 1270 1270 1270 1270 1270 1270 1270 1270 1270 1270 1270 1270 1270 1270 1270 1270 1270 9 1270 1270 1270 1270 1270 1270 1270 1270 1270 1270 1270 1270 1270 1270 22 1270 1270 1270
1270 1270 1270 1270 1270 1270 1270 1270 1270 1270 1270 1270 1270 1270 1270 1270 1270 1270 0 1270 1270 1270 1270 1270 1270 1270 1270 1270 1270 37 1270 1270 1270 1270 1270 68 1270 1270 1270 1270 1270 1270 1270 1270 1270 1270 1270 1270 1270 1270 1270 1270 1270 1270 1270 28 1270 1270 1270 1270 1270 1270 1270 1270 1270 1270 1270 1270 1270 1270 1270 1270 21 1270 1270 1270 1270 5 1270 1270 1270 1270 1270 1270 1270 1270
1270 1270 1270 1270 1270 1270 1270 16 1270 1270 1270 1270 1270 1270 23 1270 1270 1270 1270 0 1270 1270 1270 1270 1270 15 16 1270 1270 1270 1270 1270 1270 1270 1270 1270 13 1270 10 1270 1270 1270 1270 1270 1270 1270 1270 1270 1270 1270 1270 1270 1270 1270 1270 1270 1270 1270 1270 1270 1270 1270 1270 1270 1270 1270 8 1270 1270 1270 1270 1270 1270 1270 1270 1270 1270 1270 1270 1270 1270 1270 13 1270 1270 1270
1270 1270 1270 1270 1270 1270 1270 1270 1270 1270 1270 1270 1270 1270 1270 1270 1270 1270 1270 1270 0 1270 1270 1270 1270 1270 1270 1270 1270 1270 1270 1270 1270 1270 1270 1270 1270 1270 1270 1270 1270 1270 1270 1270 1270 1270 1270 1270 1270 1270 1270 1270 3 1270 1270 1270 1270 1270 1270 1270 1270 1270 16 1270 1270 1270 1270 1270 1270 1270 1270 1270 1270 1270 1270 1270 1270 1270 1270 1270 1270 2 1270 1270 1270 1270
1270 1270 1270 1270 9 1270 1270 1270 1270 1270 1270 1270 1270 1270 1270 1270 1270 1270 1270 1270 1270 0 1270 1270 1270 1270 1270 1270 1270 1270 1270 1270 1270 1270 1270 28 1270 1270 1270 1270 1270 1270 1270 1270 1270 1270 20 1270 1270 1270 1270 1270 1270 1270 1270 1270 1270 1270 21 1270 1270 1270 1270 1270 1270 1270 1270 1270 1270 3 1270 1270 1270 1270 1270 1270 1270 1270 1270 1270 1270 1270 1270 1270 1270 1270
1270 1270 1270 1270 18 1270 1270 1270 1270 1270 1270 4 1270 1270 1270 1270 1270 1270 1270 1270 1270 1270 0 1270 1270 1270 1270 1270 1270 1270 1270 1270 1270 1270 1270 1270 1270 1270 6 1270 1270 1270 1270 1270 1270 1270 4 1270 1270 1270 1270 1270 1270 1270 1270 1270 1270 1270 1270 1270 1270 1270 1270 1270 1270 1270 4 1270 1270 1270 1270 1270 1270 1270 1270 1270 1270 1270 1270 1270 1270 1270 1270 1270 1270 1270
1270 1270 19 1270 1270 1270 1270 1270 1270 1270 1270 1270 1270 1270 1270 1270 1270 1270 1270 1270 1270 1270 1270 0 1270 1270 1270 1270 1270 1270 1270 1270 1270 1270 1270 1270 1270 1270 1270 6 12 1270 1270 1270 14 1270 1270 1270 1270 1270 1270 1270 1270 1270 1270 1270 1270 1270 1270 1270 1270 1270 1270 1270 1270 1270 1270 1270 1270 1270 1270 1270 1270 1270 1270 1270 18 1270 1270 1270 1270 1270 1270 1270 16 1270
1270 1270 1270 1270 1270 1270 4 1270 1270 1270 1270 1270 1270 1270 1270 1270 1270 1270 1270 1270 1270 1270 1270 1270 0 1270 1270 1270 1270 24 1270 1270 1270 1270 1270 1270 1270 1270 1270 1270 1270 1270 1270 1270 1270 1270 1270 1270 1270 1270 1270 1270 20 13 1270 1270 1270 1270 1270 1270 1270 1270 16 1270 1270 18 1270 1270 1270 1270 1270 1270 1270 1270 1270 1270 1270 22 1270 1270 1270 1270 1270 1270 1270 1270
1270 1270 1270 1270 1270 1270 1270 1270 1270 1270 1270 1270 1270 1270 1270 1270 1270 1270 1270 15 1270 1270 1270 1270 1270 0 1270 1270 1270 1270 1270 1270 5 1270 1270 1270 1270 1270 12 1270 1270 1270 1270 10 1270 1270 1270 1270 1270 1270 1270 1270 1270 1270 1270 1270 1270 1270 1270 1270 1270 1270 1270 1270 1270 1270 1270 1270 1270 1270 1270 1270 1270 1270 1270 1270 1270 1270 1270 1270 1270 1270 9 1270 1270 1270
1270 1270 1270 1270 1270 1270 1270 3 1270 1270 1270 1270 1270 1270 1270 1270 1270 1270 1270 16 1270 1270 1270 1270 1270 1270 0 1270 1270 1270 1270 1 1270 1270 1270 1270 13 1270 1270 1270 1270 1270 1270 1270 1270 1270 1270 1270 1270 1270 6 1270 1270 1270 1270 1270 1270 1270 1270 1270 1270 1270 1270 1270 1270 1270 1270 1270 1 1270 1270 1270 1270 1270 1270 1270 1270 1270 1270 1270 1270 1270 1270 1270 1270 1270
1270 1270 1270 1270 1270 1270 1270 1270 1270 1270 5 1270 1270 1270 1270 2 1270 1270 1270 1270 1270 1270 1270 1270 1270 1270 1270 0 1270 1270 1270 1270 1270 1270 1270 1270 1270 1270 1270 1270 1270 1270 1270 1270 1270 1270 1270 1270 1270 1270 1270 1270 1270 1270 1270 1270 1270 2 1270 1270 1270 1270 1270 1270 1270 1270 1270 1270 1270 1270 1270 1270 1270 1270 1270 1270 1270 1270 1270 1270 1270 1270 1270 1270 3 1270
1270 1270 1270 1270 1270 1270 1270 1270 14 1270 1270 1270 1270 1270 1270 1270 1270 1270 1270 1270 1270 1270 1270 1270 1270 1270 1270 1270 0 1270 1270 1270 1270 1270 1270 1270 1270 1 1270 16 1270 1270 1270 1270 1270 1270 1270 1270 1270 1270 1270 1270 1270 1270 1270 1270 1270 1270 1270 1270 1270 1270 1270 1270 1270 1270 1270 17 1270 1270 1270 1270 1270 1270 5 1270 1270 1270 1270 1270 1270 1270 1270 1270 1270 1270
1270 1270 1270 1270 1270 1270 1270 1270 1270 1270 1270 1270 1270 1270 1270 1270 1270 1270 37 1270 1270 1270 1270 1270 24 1270 1270 1270 1270 0 1270 1270 1270 1270 1270 1270 1270 1270 1270 1270 1270 1270 1270 1270 1270 1270 1270 1270 1270 1270 1270 1270 1270 1270 1270 1270 1270 1270 1270 1270 1270 1270 11 1270 64 1270 1270 1270 1270 1270 1270 1270 1270 1270 1270 1270 1270 32 1270 22 1270 1270 1270 1270 1270 1270
11 1270 1270 1270 1270 1270 1270 1270 1270 1270 1270 1270 1270 1270 1270 1270 9 1270 1270 1270 1270 1270 1270 1270 1270 1270 1270 1270 1270 1270 0 1270 1270 1270 1270 1270 1270 16 1270 1270 1270 1270 1270 1270 1270 1270 1270 1270 1270 8 1270 6 1270 1270 1270 1270 1270 1270 1270 1270 1270 1270 1270 23 1270 1270 1270 1270 1270 1270 1270 1270 1270 1270 1270 1270 1270 1270 1270 1270 1270 1270 1270 1270 1270 1270
1270 1270 1270 1270 1270 1270 1270 1270 1270 1270 1270 1270 1270 1270 1270 1270 1270 1270 1270 1270 1270 1270 1270 1270 1270 1270 1 1270 1270 1270 1270 0 1270 1270 1270 1270 1270 1270 1270 1270 1270 1270 1270 1270 1270 1270 1270 1270 1270 1270 5 1270 1270 1270 1270 1270 1270 1270 1270 1270 1270 1270 1270 1270 1270 1270 1270 1270 1 1270 1270 1270 1270 1270 1270 1270 1270 1270 1270 1270 1270 1270 1270 1270 1270 1270
1270 1270 1270 9 1270 1270 1270 1270 1270 1270 1270 1270 1270 1270 1270 1270 1270 1270 1270 1270 1270 1270 1270 1270 1270 5 1270 1270 1270 1270 1270 1270 0 1270 1270 1270 1270 1270 1270 1270 1270 1270 9 8 1270 1270 1270 1270 1270 1270 1270 1270 1270 1270 1270 1270 1270 1270 1270 1270 1270 1270 1270 1270 1270 1270 1270 1270 1270 1270 1270 1270 1270 1270 1270 1270 1270 1270 1270 1270 1270 1270 13 1270 1270 1270
1270 1270 1270 1270 1270 1270 1270 1270 1270 7 1270 1270 1270 1270 1270 17 1270 1270 1270 1270 1270 1270 1270 1270 1270 1270 1270 1270 1270 1270 1270 1270 1270 0 1270 1270 1270 1270 1270 1270 1270 1270 1270 1270 1270 1270 1270 1270 1270 1270 1270 1270 1270 1270 1270 1270 8 1270 1270 1270 1270 1270 1270 1270 1270 1270 1270 1270 1270 1270 1270 1270 1270 1270 1270 1270 1270 1270 1270 1270 1270 1270 1270 11 1270 1270
1270 1270 1270 1270 5 1270 1270 1270 1270 1270 1270 1270 1270 1270 1270 1270 1270 1270 1270 1270 1270 1270 1270 1270 1270 1270 1270 1270 1270 1270 1270 1270 1270 1270 0 1270 1270 1270 20 1270 1270 1270 1270 1270 1270 7 1270 1270 1270 1270 1270 1270 1270 15 1270 1270 1270 1270 1270 15 1270 4 1270 1270 1270 1270 1270 1270 1270 1270 1270 1270 1270 1270 1270 1270 1270 1270 1270 1270 1270 1270 1270 1270 1270 1270
1270 1270 1270 1270 1270 1270 1270 1270 1270 1270 1270 1270 1270 1270 1270 1270 1270 1270 68 1270 1270 28 1270 1270 1270 1270 1270 1270 1270 1270 1270 1270 1270 1270 1270 0 10 1270 1270 1270 1270 1270 1270 1270 1270 1270 1270 1270 9 1270 1270 1270 1270 1270 1270 40 1270 1270 13 1270 1270 1270 1270 1270 1270 1270 1270 1270 1270 30 1270 1270 1270 1270 1270 1270 1270 1270 1270 1270 1270 1270 1270 1270 1270 1270
1270 1270 1270 1270 1270 1270 1270 1270 1270 1270 1270 9 1270 1270 1270 1270 1270 1270 1270 13 1270 1270 1270 1270 1270 1270 13 1270 1270 1270 1270 1270 1270 1270 1270 10 0 1270 1270 1270 1270 1270 1270 1270 1270 1270 1270 1270 11 1270 13 1270 1270 1270 1270 1270 1270 1270 9 1270 1270 1270 1270 1270 1270 1270 11 1270 1270 1270 1270 1270 1270 1270 1270 1270 1270 1270 1270 1270 1270 1270 1270 1270 1270 1270
8 1270 1270 1270 1270 1270 1270 1270 1270 1270 1270 1270 1270 1270 1270 1270 1270 1270 1270 1270 1270 1270 1270 1270 1270 1270 1270 1270 1 1270 16 1270 1270 1270 1270 1270 1270 0 1270 16 1270 1270 1270 1270 11 1270 1270 1270 1270 1270 1270 1270 1270 1270 1270 1270 1270 1270 1270 1270 1270 1270 1270 17 1270 1270 1270 1270 1270 1270 1270 1270 1270 1270 6 1270 1270 1270 1270 1270 1270 1270 1270 1270 1270 1270
1270 1270 1270 1270 20 1270 1270 1270 1270 1270 1270 1270 1270 1270 1270 1270 1270 1270 1270 10 1270 1270 6 1270 1270 12 1270 1270 1270 1270 1270 1270 1270 1270 20 1270 1270 1270 0 1270 1270 1270 1270 14 1270 19 1270 1270 1270 1270 1270 1270 1270 1270 1270 1270 1270 1270 1270 1270 1270 1270 1270 1270 1270 1270 6 1270 1270 1270 1270 1270 1270 1270 1270 1270 1270 1270 1270 1270 1270 1270 1270 1270 1270 1270
1270 1270 1270 1270 1270 1270 1270 1270 1270 1270 1270 1270 1270 1270 1270 1270 1270 1270 1270 1270 1270 1270 1270 6 1270 1270 1270 1270 16 1270 1270 1270 1270 1270 1270 1270 1270 16 1270 0 1270 1270 1270 1270 13 1270 1270 1270 1270 1270 1270 1270 1270 1270 1270 1270 1270 1270 1270 1270 1270 1270 1270 1270 1270 1270 1270 12 1270 1270 1270 1270 1270 1270 1270 1270 18 1270 1270 1270 1270 1270 1270 1270 1270 1270
1270 1270 25 1270 1270 1270 1270 1270 1270 1270 1270 1270 1270 1270 1270 1270 1270 1270 1270 1270 1270 1270 1270 12 1270 1270 1270 1270 1270 1270 1270 1270 1270 1270 1270 1270 1270 1270 1270 1270 0 1270 1270 1270 6 1270 1270 1270 1270 1270 1270 1270 1270 1270 25 1270 1270 1270 1270 1270 1270 1270 1270 8 1270 1270 1270 1270 1270 1270 1270 1270 1270 1270 1270 1270 1270 1270 1270 1270 1270 1270 1270 1270 1270 1270
1270 1270 1270 1270 1270 1270 1270 1270 20 1270 1270 1270 1270 1270 47 1270 10 1270 1270 1270 1270 1270 1270 1270 1270 1270 1270 1270 1270 1270 1270 1270 1270 1270 1270 1270 1270 1270 1270 1270 1270 0 1270 1270 1270 1270 1270 1270 1270 1270 1270 3 1270 1270 1270 1270 1270 1270 1270 1270 8 1270 1270 1270 1270 1270 1270 1270 1270 1270 1270 1270 1270 1270 1270 1270 1270 1270 1270 1270 1270 1270 1270 1270 1270 1270
1270 1270 1270 8 1270 1270 1270 1270 1270 1270 1270 1270 1270 1270 1270 1270 1270 11 1270 1270 1270 1270 1270 1270 1270 1270 1270 1270 1270 1270 1270 1270 9 1270 1270 1270 1270 1270 1270 1270 1270 1270 0 1270 1270 1270 1270 1270 1270 1270 1270 1270 1270 1270 1270 1270 1270 1270 1270 1270 1270 1270 1270 1270 1270 1270 1270 16 1270 1270 1270 1270 1270 1270 1270 1270 1270 1270 1270 1270 14 1270 19 1270 1270 1270
1270 1270 1270 8 1270 1270 1270 1270 1270 1270 1270 1270 1270 1270 1270 1270 1270 1270 1270 1270 1270 1270 1270 1270 1270 10 1270 1270 1270 1270 1270 1270 8 1270 1270 1270 1270 1270 14 1270 1270 1270 1270 0 1270 12 1270 1270 1270 1270 1270 1270 1270 1270 1270 1270 1270 1270 1270 1270 1270 1270 1270 1270 1270 1270 1270 1270 1270 1270 1270 1270 1270 1270 1270 13 1270 1270 1270 1270 1270 1270 1270 1270 1270 14
1270 1270 1270 1270 1270 1270 1270 1270 1270 1270 1270 1270 1270 1270 1270 1270 1270 1270 1270 1270 1270 1270 1270 14 1270 1270 1270 1270 1270 1270 1270 1270 1270 1270 1270 1270 1270 11 1270 13 6 1270 1270 1270 0 1270 1270 1270 1270 1270 1270 1270 1270 1270 1270 1270 1270 1270 1270 1270 1270 1270 1270 8 1270 1270 1270 1270 1270 1270 1270 1270 1270 1270 1270 1270 1270 1270 1270 1270 1270 1270 1270 1270 1270 1270
1270 1270 1270 1270 1270 1270 1270 1270 1270 1270 1270 1270 1270 1270 1270 1270 1270 1270 1270 1270 1270 1270 1270 1270 1270 1270 1270 1270 1270 1270 1270 1270 1270 1270 7 1270 1270 1270 19 1270 1270 1270 1270 12 1270 0 1270 1270 1270 1270 1270 1270 1270 1270 1270 1270 1270 1270 1270 1270 1270 4 1270 1270 1270 1270 1270 1270 1270 1270 1270 1270 1270 1270 1270 1270 1270 1270 1270 1270 1270 1270 1270 1270 1270 8
1270 1270 1270 1270 18 1270 1270 1270 1270 1270 1270 3 1270 1270 1270 1270 1270 1270 1270 1270 1270 20 4 1270 1270 1270 1270 1270 1270 1270 1270 1270 1270 1270 1270 1270 1270 1270 1270 1270 1270 1270 1270 1270 1270 1270 0 1270 1270 1270 1270 1270 1270 1270 1270 1270 1270 1270 3 1270 1270 1270 1270 1270 1270 1270 1270 1270 1270 1270 1270 1270 1270 1270 1270 1270 1270 1270 1270 1270 1270 1270 1270 1270 1270 1270
1270 1270 1270 1270 1270 1270 1270 1270 1270 1270 1270 1270 12 1270 1270 1270 1270 1270 1270 1270 1270 1270 1270 1270 1270 1270 1270 1270 1270 1270 1270 1270 1270 1270 1270 1270 1270 1270 1270 1270 1270 1270 1270 1270 1270 1270 1270 0 1270 1270 1270 1270 14 1270 1270 1270 1270 1270 1270 1270 1270 1270 1270 1270 1270 7 1270 1270 1270 1270 1270 1270 1270 1270 1270 8 1270 1270 1270 1270 1270 1270 1270 1270 1270 6
1270 1270 1270 1270 1270 1270 1270 1270 1270 1270 1270 1270 1270 1270 1270 1270 1270 1270 1270 1270 1270 1270 1270 1270 1270 1270 1270 1270 1270 1270 1270 1270 1270 1270 1270 9 11 1270 1270 1270 1270 1270 1270 1270 1270 1270 1270 1270 0 1270 11 1270 1270 1270 1270 1270 1270 1270 1270 1270 1270 1270 1270 1270 1270 1270 1270 1270 1270 1270 1270 1270 1270 1270 1270 1270 1270 1270 1270 1270 1270 1270 1270 1270 1270 1270
1270 1270 1270 1270 1270 1270 1270 1270 1270 1270 1270 1270 1270 1270 1270 1270 1270 1270 1270 1270 1270 1270 1270 1270 1270 1270 1270 1270 1270 1270 8 1270 1270 1270 1270 1270 1270 1270 1270 1270 1270 1270 1270 1270 1270 1270 1270 1270 1270 0 1270 8 1270 1270 1270 1270 1270 1270 1270 1270 8 1270 1270 26 80 1270 1270 1270 1270 1270 1270 1270 1270 1270 1270 1270 1270 1270 1270 1270 1270 1270 1270 1270 1270 1270
1270 1270 1270 1270 1270 1270 1270 1270 1270 1270 1270 1270 1270 1270 1270 1270 1270 1270 1270 1270 1270 1270 1270 1270 1270 1270 6 1270 1270 1270 1270 5 1270 1270 1270 1270 13 1270 1270 1270 1270 1270 1270 1270 1270 1270 1270 1270 11 1270 0 1270 1270 1270 1270 1270 1270 1270 1270 1270 1270 1270 1270 1270 1270 1270 1270 1270 6 1270 1270 1270 1270 1270 1270 1270 1270 1270 1270 1270 1270 1270 1270 1270 1270 1270
1270 1270 1270 1270 1270 1270 1270 1270 1270 1270 1270 1270 1270 1270 1270 1270 10 1270 1270 1270 1270 1270 1270 1270 1270 1270 1270 1270 1270 1270 6 1270 1270 1270 1270 1270 1270 1270 1270 1270 1270 3 1270 1270 1270 1270 1270 1270 1270 8 1270 0 1270 1270 1270 1270 1270 1270 1270 1270 7 1270 1270 1270 1270 1270 1270 1270 1270 1270 1270 1270 1270 1270 1270 1270 1270 1270 1270 1270 1270 1270 1270 1270 1270 1270
1270 1270 1270 1270 1270 1270 1270 1270 1270 1270 1270 1270 15 1270 1270 1270 1270 1270 1270 1270 3 1270 1270 1270 20 1270 1270 1270 1270 1270 1270 1270 1270 1270 1270 1270 1270 1270 1270 1270 1270 1270 1270 1270 1270 1270 1270 14 1270 1270 1270 1270 0 1270 1270 1270 1270 1270 1270 1270 1270 1270 18 1270 1270 14 1270 1270 1270 1270 1270 1270 1270 1270 1270 1270 1270 1270 1270 1270 1270 4 1270 1270 1270 1270
1270 1270 1270 1270 1270 1270 12 1270 1270 1270 1270 1270 1270 1270 1270 1270 1270 1270 1270 1270 1270 1270 1270 1270 13 1270 1270 1270 1270 1270 1270 1270 1270 1270 15 1270 1270 1270 1270 1270 1270 1270 1270 1270 1270 1270 1270 1270 1270 1270 1270 1270 1270 0 1270 1270 1270 1270 1270 12 1270 14 1270 1270 1270 10 1270 1270 1270 1270 1270 1270 11 1270 1270 1270 1270 1270 1270 1270 1270 1270 1270 1270 1270 1270
1270 9 13 1270 1270 1270 1270 1270 1270 1270 1270 1270 1270 1270 1270 1270 1270 1270 1270 1270 1270 1270 1270 1270 1270 1270 1270 1270 1270 1270 1270 1270 1270 1270 1270 1270 1270 1270 1270 1270 25 1270 1270 1270 1270 1270 1270 1270 1270 1270 1270 1270 1270 1270 0 1270 1270 1270 1270 1270 1270 1270 1270 30 26 1270 1270 1270 1270 1270 7 1270 1270 1270 1270 1270 1270 1270 1270 1270 1270 1270 1270 1270 1270 1270
1270 1270 1270 1270 1270 1270 1270 1270 1270 1270 1270 1270 1270 1270 1270 1270 1270 1270 28 1270 1270 1270 1270 1270 1270 1270 1270 1270 1270 1270 1270 1270 1270 1270 1270 40 1270 1270 1270 1270 1270 1270 1270 1270 1270 1270 1270 1270 1270 1270 1270 1270 1270 1270 1270 0 1270 1270 1270 6 1270 1270 1270 1270 1270 1270 1270 1270 1270 10 1270 1270 14 1270 1270 1270 1270 1270 1270 1270 1270 1270 1270 1270 1270 1270
1270 1270 1270 1270 1270 1270 1270 1270 1270 12 1270 1270 1270 1270 1270 20 1270 1270 1270 1270 1270 1270 1270 1270 1270 1270 1270 1270 1270 1270 1270 1270 1270 8 1270 1270 1270 1270 1270 1270 1270 1270 1270 1270 1270 1270 1270 1270 1270 1270 1270 1270 1270 1270 1270 1270 0 1270 1270 1270 1270 1270 16 1270 1270 1270 1270 1270 1270 1270 1270 1270 1270 1270 1270 1270 1270 1270 1270 16 1270 9 1270 1270 1270 1270
1270 1270 1270 1270 1270 1270 1270 1270 1270 1270 1270 1270 19 1270 1270 2 1270 1270 1270 1270 1270 1270 1270 1270 1270 1270 1270 2 1270 1270 1270 1270 1270 1270 1270 1270 1270 1270 1270 1270 1270 1270 1270 1270 1270 1270 1270 1270 1270 1270 1270 1270 1270 1270 1270 1270 1270 0 1270 1270 1270 1270 1270 1270 1270 1270 1270 1270 1270 1270 1270 1270 1270 1270 1270 1270 15 1270 1270 1270 1270 1270 1270 1270 4 1270
1270 1270 1270 1270 1270 1270 1270 1270 1270 1270 1270 4 1270 1270 1270 1270 1270 1270 1270 1270 1270 21 1270 1270 1270 1270 1270 1270 1270 1270 1270 1270 1270 1270 1270 13 9 1270 1270 1270 1270 1270 1270 1270 1270 1270 3 1270 1270 1270 1270 1270 1270 1270 1270 1270 1270 1270 0 1270 1270 1270 1270 1270 1270 1270 1270 1270 1270 1270 1270 1270 1270 1270 1270 1270 1270 1270 1270 1270 1270 1270 1270 1270 1270 1270
1270 1270 1270 1270 14 1270 1270 1270 1270 1270 1270 1270 1270 1270 1270 1270 1270 1270 1270 1270 1270 1270 1270 1270 1270 1270 1270 1270 1270 1270 1270 1270 1270 1270 15 1270 1270 1270 1270 1270 1270 1270 1270 1270 1270 1270 1270 1270 1270 1270 1270 1270 1270 12 1270 6 1270 1270 1270 0 1270 1270 1270 1270 1270 1270 1270 1270 1270 12 1270 1270 11 1270 1270 1270 1270 1270 1270 1270 1270 1270 1270 1270 1270 1270
1270 1270 1270 1270 1270 1270 1270 1270 1270 1270 1270 1270 1270 1270 55 1270 1270 1270 1270 1270 1270 1270 1270 1270 1270 1270 1270 1270 1270 1270 1270 1270 1270 1270 1270 1270 1270 1270 1270 1270 1270 8 1270 1270 1270 1270 1270 1270 1270 8 1270 7 1270 1270 1270 1270 1270 1270 1270 1270 0 1270 1270 1270 1270 1270 1270 1270 1270 1270 1270 1270 1270 1270 1270 1270 1270 1270 1270 1270 1270 1270 1270 1270 1270 1270
1270 1270 1270 1270 1270 1270 1270 1270 1270 1270 1270 1270 1270 1270 1270 1270 1270 1270 1270 1270 1270 1270 1270 1270 1270 1270 1270 1270 1270 1270 1270 1270 1270 1270 4 1270 1270 1270 1270 1270 1270 1270 1270 1270 1270 4 1270 1270 1270 1270 1270 1270 1270 14 1270 1270 1270 1270 1270 1270 1270 0 1270 1270 1270 14 1270 1270 1270 1270 1270 1270 1270 1270 1270 1270 1270 1270 1270 1270 1270 1270 1270 1270 1270 10
1270 1270 1270 1270 1270 1270 1270 1270 1270 1270 1270 1270 1270 1270 1270 1270 1270 1270 1270 1270 16 1270 1270 1270 16 1270 1270 1270 1270 11 1270 1270 1270 1270 1270 1270 1270 1270 1270 1270 1270 1270 1270 1270 1270 1270 1270 1270 1270 1270 1270 1270 18 1270 1270 1270 16 1270 1270 1270 1270 1270 0 1270 1270 1270 1270 1270 1270 1270 1270 1270 1270 1270 1270 1270 1270 1270 1270 23 1270 16 1270 1270 1270 1270
1270 1270 1270 1270 1270 1270 1270 1270 1270 1270 1270 1270 1270 1270 1270 1270 1270 1270 1270 1270 1270 1270 1270 1270 1270 1270 1270 1270 1270 1270 23 1270 1270 1270 1270 1270 1270 17 1270 1270 8 1270 1270 1270 8 1270 1270 1270 1270 26 1270 1270 1270 1270 30 1270 1270 1270 1270 1270 1270 1270 1270 0 54 1270 1270 1270 1270 1270 1270 1270 1270 1270 1270 1270 1270 1270 1270 1270 1270 1270 1270 1270 1270 1270
1270 23 1270 1270 1270 26 1270 1270 1270 1270 1270 1270 1270 1270 1270 1270 1270 1270 1270 1270 1270 1270 1270 1270 1270 1270 1270 1270 1270 64 1270 1270 1270 1270 1270 1270 1270 1270 1270 1270 1270 1270 1270 1270 1270 1270 1270 1270 1270 80 1270 1270 1270 1270 26 1270 1270 1270 1270 1270 1270 1270 1270 54 0 1270 1270 1270 1270 1270 1270 1270 1270 22 1270 1270 1270 1270 29 41 1270 1270 1270 1270 1270 1270
1270 1270 1270 1270 1270 1270 1270 1270 1270 1270 1270 1270 1270 1270 1270 1270 1270 1270 1270 1270 1270 1270 1270 1270 18 1270 1270 1270 1270 1270 1270 1270 1270 1270 1270 1270 1270 1270 1270 1270 1270 1270 1270 1270 1270 1270 1270 7 1270 1270 1270 1270 14 10 1270 1270 1270 1270 1270 1270 1270 14 1270 1270 1270 0 1270 1270 1270 1270 1270 1270 1270 1270 1270 1270 1270 1270 1270 1270 1270 1270 1270 1270 1270 10
1270 1270 1270 1270 1270 1270 1270 1270 1270 1270 1270 4 1270 1270 1270 1270 1270 1270 1270 8 1270 1270 4 1270 1270 1270 1270 1270 1270 1270 1270 1270 1270 1270 1270 1270 11 1270 6 1270 1270 1270 1270 1270 1270 1270 1270 1270 1270 1270 1270 1270 1270 1270 1270 1270 1270 1270 1270 1270 1270 1270 1270 1270 1270 1270 0 1270 1270 1270 1270 1270 1270 1270 1270 1270 1270 1270 1270 1270 1270 1270 1270 1270 1270 1270
1270 1270 1270 1270 1270 1270 1270 1270 19 1270 1270 1270 1270 1270 1270 1270 1270 9 1270 1270 1270 1270 1270 1270 1270 1270 1270 1270 17 1270 1270 1270 1270 1270 1270 1270 1270 1270 1270 12 1270 1270 16 1270 1270 1270 1270 1270 1270 1270 1270 1270 1270 1270 1270 1270 1270 1270 1270 1270 1270 1270 1270 1270 1270 1270 1270 0 1270 1270 1270 1270 1270 1270 1270 1270 17 1270 1270 1270 20 1270 1270 1270 1270 1270
1270 1270 1270 1270 1270 1270 1270 3 1270 1270 1270 1270 1270 1270 24 1270 1270 1270 1270 1270 1270 1270 1270 1270 1270 1270 1 1270 1270 1270 1270 1 1270 1270 1270 1270 1270 1270 1270 1270 1270 1270 1270 1270 1270 1270 1270 1270 1270 1270 6 1270 1270 1270 1270 1270 1270 1270 1270 1270 1270 1270 1270 1270 1270 1270 1270 1270 0 1270 1270 1270 1270 1270 1270 1270 1270 1270 1270 1270 1270 1270 1270 1270 1270 1270
1270 1270 1270 1270 10 1270 1270 1270 1270 1270 1270 1270 1270 1270 1270 1270 1270 1270 1270 1270 1270 3 1270 1270 1270 1270 1270 1270 1270 1270 1270 1270 1270 1270 1270 30 1270 1270 1270 1270 1270 1270 1270 1270 1270 1270 1270 1270 1270 1270 1270 1270 1270 1270 1270 10 1270 1270 1270 12 1270 1270 1270 1270 1270 1270 1270 1270 1270 0 1270 1270 1270 1270 1270 1270 1270 1270 1270 1270 1270 1270 1270 1270 1270 1270
1270 5 8 1270 1270 1270 1270 1270 1270 1270 1270 1270 1270 3 1270 1270 1270 1270 1270 1270 1270 1270 1270 1270 1270 1270 1270 1270 1270 1270 1270 1270 1270 1270 1270 1270 1270 1270 1270 1270 1270 1270 1270 1270 1270 1270 1270 1270 1270 1270 1270 1270 1270 1270 7 1270 1270 1270 1270 1270 1270 1270 1270 1270 1270 1270 1270 1270 1270 1270 0 1270 1270 1270 1270 1270 1270 1270 1270 1270 1270 1270 1270 1270 1270 1270
1270 2 11 1270 1270 11 1270 1270 1270 1270 14 1270 1270 3 1270 1270 1270 1270 1270 1270 1270 1270 1270 1270 1270 1270 1270 1270 1270 1270 1270 1270 1270 1270 1270 1270 1270 1270 1270 1270 1270 1270 1270 1270 1270 1270 1270 1270 1270 1270 1270 1270 1270 1270 1270 1270 1270 1270 1270 1270 1270 1270 1270 1270 1270 1270 1270 1270 1270 1270 1270 0 1270 2 1270 1270 1270 1270 1270 1270 1270 1270 1270 13 1270 1270
1270 1270 1270 1270 1270 1270 8 1270 1270 1270 1270 1270 1270 1270 1270 1270 1270 1270 21 1270 1270 1270 1270 1270 1270 1270 1270 1270 1270 1270 1270 1270 1270 1270 1270 1270 1270 1270 1270 1270 1270 1270 1270 1270 1270 1270 1270 1270 1270 1270 1270 1270 1270 11 1270 14 1270 1270 1270 11 1270 1270 1270 1270 1270 1270 1270 1270 1270 1270 1270 1270 0 1270 1270 1270 1270 20 1270 1270 1270 1270 1270 1270 1270 1270
1270 3 1270 1270 1270 10 1270 1270 1270 1270 1270 1270 1270 1270 1270 1270 1270 1270 1270 1270 1270 1270 1270 1270 1270 1270 1270 1270 1270 1270 1270 1270 1270 1270 1270 1270 1270 1270 1270 1270 1270 1270 1270 1270 1270 1270 1270 1270 1270 1270 1270 1270 1270 1270 1270 1270 1270 1270 1270 1270 1270 1270 1270 1270 22 1270 1270 1270 1270 1270 1270 2 1270 0 1270 1270 1270 1270 1270 1270 1270 1270 1270 1270 1270 1270
3 1270 1270 1270 1270 1270 1270 1270 10 1270 1270 1270 1270 1270 1270 1270 1270 1270 1270 1270 1270 1270 1270 1270 1270 1270 1270 1270 5 1270 1270 1270 1270 1270 1270 1270 1270 6 1270 1270 1270 1270 1270 1270 1270 1270 1270 1270 1270 1270 1270 1270 1270 1270 1270 1270 1270 1270 1270 1270 1270 1270 1270 1270 1270 1270 1270 1270 1270 1270 1270 1270 1270 1270 0 1270 1270 1270 1270 1270 1270 1270 1270 1270 1270 1270
1270 1270 1270 10 1270 1270 1270 1270 1270 1270 1270 1270 11 1270 1270 1270 1270 1270 1270 1270 1270 1270 1270 1270 1270 1270 1270 1270 1270 1270 1270 1270 1270 1270 1270 1270 1270 1270 1270 1270 1270 1270 1270 13 1270 1270 1270 8 1270 1270 1270 1270 1270 1270 1270 1270 1270 1270 1270 1270 1270 1270 1270 1270 1270 1270 1270 1270 1270 1270 1270 1270 1270 1270 1270 0 1270 1270 1270 1270 11 1270 1270 1270 1270 6
1270 1270 1270 1270 1270 1270 1270 1270 1270 1270 1270 1270 11 1270 1270 1270 1270 1270 1270 1270 1270 1270 1270 18 1270 1270 1270 1270 1270 1270 1270 1270 1270 1270 1270 1270 1270 1270 1270 18 1270 1270 1270 1270 1270 1270 1270 1270 1270 1270 1270 1270 1270 1270 1270 1270 1270 15 1270 1270 1270 1270 1270 1270 1270 1270 1270 17 1270 1270 1270 1270 1270 1270 1270 1270 0 1270 1270 1270 8 1270 1270 1270 15 1270
1270 1270 1270 1270 1270 1270 20 1270 1270 1270 1270 1270 1270 1270 1270 1270 1270 1270 5 1270 1270 1270 1270 1270 22 1270 1270 1270 1270 32 1270 1270 1270 1270 1270 1270 1270 1270 1270 1270 1270 1270 1270 1270 1270 1270 1270 1270 1270 1270 1270 1270 1270 1270 1270 1270 1270 1270 1270 1270 1270 1270 1270 1270 1270 1270 1270 1270 1270 1270 1270 1270 20 1270 1270 1270 1270 0 1270 1270 1270 1270 1270 1270 1270 1270
1270 1270 1270 1270 1270 4 1270 1270 1270 12 1270 1270 1270 1270 1270 1270 1270 1270 1270 1270 1270 1270 1270 1270 1270 1270 1270 1270 1270 1270 1270 1270 1270 1270 1270 1270 1270 1270 1270 1270 1270 1270 1270 1270 1270 1270 1270 1270 1270 1270 1270 1270 1270 1270 1270 1270 1270 1270 1270 1270 1270 1270 1270 1270 29 1270 1270 1270 1270 1270 1270 1270 1270 1270 1270 1270 1270 1270 0 16 1270 1270 1270 5 1270 1270
1270 1270 1270 1270 1270 1270 1270 1270 1270 7 1270 1270 1270 1270 1270 1270 1270 1270 1270 1270 1270 1270 1270 1270 1270 1270 1270 1270 1270 22 1270 1270 1270 1270 1270 1270 1270 1270 1270 1270 1270 1270 1270 1270 1270 1270 1270 1270 1270 1270 1270 1270 1270 1270 1270 1270 16 1270 1270 1270 1270 1270 23 1270 41 1270 1270 1270 1270 1270 1270 1270 1270 1270 1270 1270 1270 1270 16 0 1270 1270 1270 1270 1270 1270
1270 1270 1270 12 1270 1270 1270 1270 1270 1270 1270 1270 8 1270 1270 1270 1270 1270 1270 1270 1270 1270 1270 1270 1270 1270 1270 1270 1270 1270 1270 1270 1270 1270 1270 1270 1270 1270 1270 1270 1270 1270 14 1270 1270 1270 1270 1270 1270 1270 1270 1270 1270 1270 1270 1270 1270 1270 1270 1270 1270 1270 1270 1270 1270 1270 1270 20 1270 1270 1270 1270 1270 1270 1270 11 8 1270 1270 1270 0 1270 1270 1270 1270 1270
1270 1270 1270 1270 1270 1270 1270 1270 1270 1270 1270 1270 17 1270 1270 22 1270 1270 1270 1270 2 1270 1270 1270 1270 1270 1270 1270 1270 1270 1270 1270 1270 1270 1270 1270 1270 1270 1270 1270 1270 1270 1270 1270 1270 1270 1270 1270 1270 1270 1270 1270 4 1270 1270 1270 9 1270 1270 1270 1270 1270 16 1270 1270 1270 1270 1270 1270 1270 1270 1270 1270 1270 1270 1270 1270 1270 1270 1270 1270 0 1270 1270 1270 1270
1270 1270 1270 1270 1270 1270 1270 1270 1270 1270 1270 1270 1270 1270 16 1270 1270 22 1270 13 1270 1270 1270 1270 1270 9 1270 1270 1270 1270 1270 1270 13 1270 1270 1270 1270 1270 1270 1270 1270 1270 19 1270 1270 1270 1270 1270 1270 1270 1270 1270 1270 1270 1270 1270 1270 1270 1270 1270 1270 1270 1270 1270 1270 1270 1270 1270 1270 1270 1270 1270 1270 1270 1270 1270 1270 1270 1270 1270 1270 1270 0 1270 1270 1270
1270 1270 1270 1270 1270 6 1270 1270 1270 13 13 1270 1270 1270 1270 15 1270 1270 1270 1270 1270 1270 1270 1270 1270 1270 1270 1270 1270 1270 1270 1270 1270 11 1270 1270 1270 1270 1270 1270 1270 1270 1270 1270 1270 1270 1270 1270 1270 1270 1270 1270 1270 1270 1270 1270 1270 1270 1270 1270 1270 1270 1270 1270 1270 1270 1270 1270 1270 1270 1270 13 1270 1270 1270 1270 1270 1270 5 1270 1270 1270 1270 0 1270 1270
1270 1270 10 1270 1270 1270 1270 1270 1270 1270 6 1270 1270 1270 1270 1270 1270 1270 1270 1270 1270 1270 1270 16 1270 1270 1270 3 1270 1270 1270 1270 1270 1270 1270 1270 1270 1270 1270 1270 1270 1270 1270 1270 1270 1270 1270 1270 1270 1270 1270 1270 1270 1270 1270 1270 1270 4 1270 1270 1270 1270 1270 1270 1270 1270 1270 1270 1270 1270 1270 1270 1270 1270 1270 1270 15 1270 1270 1270 1270 1270 1270 1270 0 1270
1270 1270 1270 1270 1270 1270 1270 1270 1270 1270 1270 1270 1270 1270 1270 1270 1270 1270 1270 1270 1270 1270 1270 1270 1270 1270 1270 1270 1270 1270 1270 1270 1270 1270 1270 1270 1270 1270 1270 1270 1270 1270 1270 14 1270 8 1270 6 1270 1270 1270 1270 1270 1270 1270 1270 1270 1270 1270 1270 1270 10 1270 1270 1270 10 1270 1270 1270 1270 1270 1270 1270 1270 1270 6 1270 1270 1270 1270 1270 1270 1270 1270 1270 0
EOF
